2827
1911
7369
4380
9604
8877
464
7304
3587
5475
3076
2956
673
9739
4524
3701
8965
1793
6003
2703
9748
1196
2711
775
4174
8312
4422
6813
2798
5016
481
6142
7035
482
6162
3522
4987
1494
407
1225
9807
9499
7867
8975
1092
2007
5688
5483
3919
4936
